Solving original (integer) problem with strategy gdp.binary_multiplication...
--- Job model.gms Start 02/18/26 23:31:35 52.2.0 d8e408be LEX-LEG x86 64bit/Linux
--- Applying:
    /package/gams/52.2/gmsprmun.txt
--- GAMS Parameters defined
    Input /local/scratch/a/sgusev/repos/k_means/data/gams_gurobi_gdp.binary_multiplication/no_mode/2026-02-18_23-31-34/original/model.gms
    Output /local/scratch/a/sgusev/repos/k_means/data/gams_gurobi_gdp.binary_multiplication/no_mode/2026-02-18_23-31-34/original/output.lst
    ScrDir /local/scratch/a/sgusev/repos/k_means/data/gams_gurobi_gdp.binary_multiplication/no_mode/2026-02-18_23-31-34/original/225a/
    SysDir /package/gams/52.2/
    CurDir /local/scratch/a/sgusev/repos/k_means/data/gams_gurobi_gdp.binary_multiplication/no_mode/2026-02-18_23-31-34/original/
    LogOption 3
    AppendLog 1
Licensee: David Bernal / SECQUOIA Research Group         G251008+0003Ac-GEN
          Purdue University, Davidson School of Chemical EngineeringDCE4838
          225a/gamslice.dat
          5a82958a-fbca-4a23
          node:66820903 mem:995 cores:48 ipport:46289 v:2                  
          Evaluation license: Not for commercial or production use
          The time-limited license stops working on : Jun 30, 2027
System information: 48 physical cores and 995 Gb physical memory detected
GAMS 52.2.0   Copyright (C) 1987-2025 GAMS Development. All rights reserved
--- Starting compilation
--- model.gms(274) 2 Mb
--- $echo File /local/scratch/a/sgusev/repos/k_means/data/gams_gurobi_gdp.binary_multiplication/no_mode/2026-02-18_23-31-34/original/gurobi.opt
--- model.gms(481) 2 Mb
--- Starting execution: elapsed 0:00:00.005
--- model.gms(283) 3 Mb
--- Generating MINLP model GAMS_MODEL
--- model.gms(287) 5 Mb
---   65 rows  76 columns  319 non-zeroes
---   750 nl-code  250 nl-non-zeroes
---   50 discrete-columns
--- Range statistics (absolute non-zero finite values)
--- RHS       [min, max] : [ 1.000E+00, 1.000E+00] - Zero values observed as well
--- Bound     [min, max] : [ 1.000E+00, 6.000E+01] - Zero values observed as well
--- Matrix    [min, max] : [ 3.877E-01, 1.970E+00] - Zero values observed as well
--- model.gms(287) 3 Mb
--- Executing GUROBI (Solvelink=5): elapsed 0:00:00.008
Reading parameter(s) from "/local/scratch/a/sgusev/repos/k_means/data/gams_gurobi_gdp.binary_multiplication/no_mode/2026-02-18_23-31-34/original/gurobi.opt"
>>  NonConvex 2
>>  Threads 1
>>  MIPGap 1e-06
>>  MIPGapAbs 1e-10
>>  FeasibilityTol 1e-06
>>  OptimalityTol 1e-06
>>  IntFeasTol 1e-05
Finished reading from "/local/scratch/a/sgusev/repos/k_means/data/gams_gurobi_gdp.binary_multiplication/no_mode/2026-02-18_23-31-34/original/gurobi.opt"

... GRB_LICENSE_FILE = /local/scratch/a/sgusev/gurobi.lic

    Gurobi           52.2.0 d8e408be Dec 8, 2025           LEG x86 64bit/Linux    

... GAMS/Gurobi Link license.
... GMO Q Extraction (ThreePass): 0.00s

    Gurobi Optimizer version 13.0.0 build v13.0.0rc1 (linux64 - "Oracle Linux Server 9.7")
    
    CPU model: AMD EPYC 7643 48-Core Processor, instruction set [SSE2|AVX|AVX2]
    Thread count: 48 physical cores, 96 logical processors, using up to 1 threads
    
    Non-default parameters:
    TimeLimit  300
    MIPGap  1e-06
    LogToConsole  0
    NonConvex  2
    Threads  1
    
    Optimize a model with 64 rows, 125 columns and 108 nonzeros (Min)
    Model fingerprint: 0xe8d52acf
    Model has 10 linear objective coefficients
    Model has 50 general nonlinear constraints (200 nonlinear terms)
    Variable types: 75 continuous, 50 integer (0 binary)
    Coefficient statistics:
      Matrix range     [1e+00, 1e+00]
      Objective range  [1e+00, 1e+00]
      Bounds range     [1e+00, 6e+01]
      RHS range        [1e+00, 1e+00]
      NLCon coe range  [4e-02, 1e+00]
    Presolve model has 50 nlconstr
    Added 350 variables to disaggregate expressions
    Presolve removed 50 rows and 0 columns
    Presolve time: 0.00s
    Presolved: 864 rows, 526 columns, 2008 nonzeros
    Presolved model has 150 bilinear constraint(s)
    
    Solving non-convex MIQCP to global optimality
    
    Variable types: 476 continuous, 50 integer (50 binary)
    Found heuristic solution: objective 9.8979595
    
    Root relaxation: objective 0.000000e+00, 35 iterations, 0.00 seconds (0.00 work units)
    
        Nodes    |    Current Node    |     Objective Bounds      |     Work
     Expl Unexpl |  Obj  Depth IntInf | Incumbent    BestBd   Gap | It/Node Time
    
         0     0    0.00000    0  150    9.89796    0.00000   100%     -    0s
    H    0     0                       9.8276485    0.00000   100%     -    0s
         0     0    0.00000    0  164    9.82765    0.00000   100%     -    0s
         0     0    0.00000    0  170    9.82765    0.00000   100%     -    0s
         0     0    0.00000    0  162    9.82765    0.00000   100%     -    0s
    H    0     0                       9.6977765    0.00000   100%     -    0s
         0     0    0.00000    0  154    9.69778    0.00000   100%     -    0s
         0     0    0.00000    0  163    9.69778    0.00000   100%     -    0s
         0     0    0.00000    0  162    9.69778    0.00000   100%     -    0s
         0     0    0.00000    0  162    9.69778    0.00000   100%     -    0s
         0     0    0.00000    0  162    9.69778    0.00000   100%     -    0s
    H    0     0                       6.5925841    0.00000   100%     -    0s
    H    0     0                       6.2214715    0.00000   100%     -    0s
    H    0     0                       5.6132564    0.00000   100%     -    0s
         0     2    0.00000    0  162    5.61326    0.00000   100%     -    0s
    H    3     3                       5.0445030    0.00000   100%  15.0    0s
    H    3     3                       4.8942729    0.00000   100%  15.0    0s
    H    3     3                       4.8783995    0.00000   100%  15.0    0s
    H    3     3                       4.8682301    0.00000   100%  15.0    0s
    H    3     3                       4.8680483    0.00000   100%  15.0    0s
    H    3     3                       4.8673630    0.00000   100%  15.0    0s
    H    3     3                       4.8673594    0.00000   100%  15.0    0s
    H   38    38                       3.7535270    0.00000   100%  13.9    0s
    H   44    44                       3.6868987    0.00000   100%  12.5    0s
    H   45    45                       3.6868986    0.00000   100%  12.3    0s
    H   47    38                       2.3971206    0.00000   100%  12.0    0s
    H   71    52                       2.3971206    0.00000   100%  14.0    0s
    H   95    73                       2.3971206    0.00000   100%  14.9    0s
    H  113    75                       2.3904782    0.00000   100%  15.0    0s
    H  167   110                       2.3904782    0.00000   100%  15.6    0s
    H  368   232                       2.3904782    0.00000   100%  16.6    0s
    H  467   297                       2.3728192    0.00000   100%  15.6    0s
    H  477   302                       2.3496931    0.00000   100%  15.7    0s
    H  518   273                       2.0994399    0.00000   100%  17.3    0s
    H  682   356                       2.0170515    0.00000   100%  16.4    0s
    H  682   338                       1.9964544    0.00000   100%  16.4    0s
    H  682   321                       1.9913051    0.00000   100%  16.4    0s
    H  682   305                       1.9900178    0.00000   100%  16.4    0s
    H  682   289                       1.9896960    0.00000   100%  16.4    0s
    H  682   275                       1.9896155    0.00000   100%  16.4    0s
    H  682   261                       1.9895954    0.00000   100%  16.4    0s
    H  686   250                       1.9352801    0.00000   100%  16.3    1s
    H  911   285                       1.7791162    0.00000   100%  19.5    1s
    H  989   279                       1.7791162    0.00000   100%  19.5    1s
    H 1010   274                       1.7791162    0.00000   100%  19.4    1s
    H 1078   283                       1.7791162    0.00000   100%  18.9    1s
    H 1458   369                       1.5991141    0.00000   100%  17.4    2s
    H 1515   418                       1.5991141    0.00000   100%  17.0    2s
      3538  1199     cutoff   32         1.59911    0.00000   100%  16.6    5s
    H 3779  1258                       1.5873344    0.00000   100%  16.6    5s
    H 3896  1291                       1.5873344    0.00000   100%  16.5    5s
    H 3908  1299                       1.5873344    0.00000   100%  16.5    5s
    H 3936  1303                       1.5873344    0.00000   100%  16.5    5s
    H 4901  1601                       1.5478027    0.00000   100%  16.9    6s
    H 4904  1604                       1.5478027    0.00000   100%  16.9    6s
    H 5182  1659                       1.4025962    0.00000   100%  17.0    6s
    H 5202  1659                       1.4025962    0.00000   100%  17.1    6s
    H 6841  2070                       1.4025962    0.00000   100%  18.1    8s
      8318  2383    0.25231   24  128    1.40260    0.01468  99.0%  18.4   10s
     13408  3144    1.21050   33  151    1.40260    0.26123  81.4%  18.3   15s
     18706  3331 infeasible   31         1.40260    0.41097  70.7%  17.9   20s
    H20686  3374                       1.3809838    0.44608  67.7%  17.7   22s
    H20716  3270                       1.3142647    0.44608  66.1%  17.7   22s
    H22966  3224                       1.2789013    0.50229  60.7%  17.5   24s
     23425  3132     cutoff   37         1.27890    0.52851  58.7%  17.5   25s
    H23966  3056                       1.2789008    0.54867  57.1%  17.4   25s
     27797  2453    1.16035   31  140    1.27890    0.71232  44.3%  17.3   30s
     32320  2568    1.17710   53  108    1.27890    0.89784  29.8%  16.8   35s
     37812  3622    1.24642   58  100    1.27890    0.96633  24.4%  15.9   40s
     43453  4695    1.16580   46  109    1.27890    1.00323  21.6%  15.2   45s
     48913  5355    1.24973   46  110    1.27890    1.03107  19.4%  14.7   50s
     54032  5683 infeasible   49         1.27890    1.05766  17.3%  14.4   55s
     59313  5838    1.18489   47  130    1.27890    1.08149  15.4%  14.1   60s
     64548  5996     cutoff   42         1.27890    1.10657  13.5%  13.8   65s
    H68028  6838                       1.2789005    1.11379  12.9%  13.5   67s
     70000  7058     cutoff   60         1.27890    1.11996  12.4%  13.4   70s
     76242  7814    1.23765   68  110    1.27890    1.13449  11.3%  13.0   75s
     82469  8271    1.26486   55   90    1.27890    1.14883  10.2%  12.6   80s
     88599  8937     cutoff   70         1.27890    1.16114  9.21%  12.3   85s
     94683  9769    1.27092   68  110    1.27890    1.17104  8.43%  11.9   90s
     101131 10599    1.18487   52  120    1.27890    1.17931  7.79%  11.6   95s
     107624 11696     cutoff   60         1.27890    1.18821  7.09%  11.3  100s
     113486 12482    1.22014   60  110    1.27890    1.19622  6.46%  11.0  105s
     120040 13632    1.25799   73  110    1.27890    1.20215  6.00%  10.8  110s
     126626 14454    1.24872   59   80    1.27890    1.20843  5.51%  10.5  115s
    H129044 14694                       1.2789003    1.21054  5.35%  10.4  117s
     132754 15372     cutoff   60         1.27890    1.21275  5.17%  10.3  120s
     139211 16343     cutoff   65         1.27890    1.21748  4.80%  10.1  125s
     146058 17836    1.26609   69  100    1.27890    1.22106  4.52%   9.9  130s
     152562 19014    1.26237   67  120    1.27890    1.22368  4.32%   9.7  135s
     159462 20024    1.27419   58   80    1.27890    1.22596  4.14%   9.5  140s
     165217 20779     cutoff   66         1.27890    1.22808  3.97%   9.4  145s
     171146 21612     cutoff   61         1.27890    1.22981  3.84%   9.3  150s
     177106 22446    1.27282   72   90    1.27890    1.23132  3.72%   9.3  155s
    H179725 22745                       1.2789003    1.23212  3.66%   9.2  157s
    H180725 22815                       1.2789000    1.23237  3.64%   9.2  158s
    H181948 22984                       1.2788998    1.23266  3.62%   9.2  159s
     182512 23122    1.27699   76   99    1.27890    1.23276  3.61%   9.2  160s
    H182948 23174                       1.2788990    1.23285  3.60%   9.2  160s
     188154 23666    1.25829   69  110    1.27890    1.23411  3.50%   9.1  165s
     193953 24103    1.27545   66   90    1.27890    1.23543  3.40%   9.1  170s
    H195307 24181                       1.2788986    1.23572  3.38%   9.0  171s
     199761 24449     cutoff   77         1.27890    1.23666  3.30%   9.0  175s
     206551 24989     cutoff   71         1.27890    1.23803  3.20%   8.9  180s
     213370 25352    1.27784   85  110    1.27890    1.23938  3.09%   8.8  185s
     220124 26244    1.26633   71   90    1.27890    1.24036  3.01%   8.7  190s
     226603 26529    1.25070   67  110    1.27890    1.24145  2.93%   8.6  195s
     233281 26921    1.25385   63  120    1.27890    1.24253  2.84%   8.5  200s
     239919 27163     cutoff   74         1.27890    1.24346  2.77%   8.4  205s
     246175 27281     cutoff   68         1.27890    1.24433  2.70%   8.3  210s
     252719 27583     cutoff   74         1.27890    1.24518  2.64%   8.3  215s
     258570 28244    1.27130   72   90    1.27890    1.24583  2.59%   8.2  220s
     265113 28947     cutoff   58         1.27890    1.24647  2.54%   8.1  225s
     271572 29788     cutoff   93         1.27890    1.24706  2.49%   8.1  230s
     277739 30441    1.27591   80   90    1.27890    1.24752  2.45%   8.0  235s
     284242 30952     cutoff   76         1.27890    1.24797  2.42%   8.0  240s
     290768 31564     cutoff   82         1.27890    1.24852  2.38%   7.9  245s
     296909 32003     cutoff   85         1.27890    1.24896  2.34%   7.9  250s
     303407 32283     cutoff   74         1.27890    1.24951  2.30%   7.8  255s
     309928 32432    1.27541   74  110    1.27890    1.25002  2.26%   7.8  260s
     316233 32739     cutoff   78         1.27890    1.25048  2.22%   7.7  265s
     322805 32933    1.27572   79   93    1.27890    1.25103  2.18%   7.7  270s
     329346 32898    1.27706   73   70    1.27890    1.25159  2.14%   7.6  275s
     335233 32959     cutoff   76         1.27890    1.25206  2.10%   7.6  280s
     341666 32896    1.27823   75   90    1.27890    1.25261  2.06%   7.5  285s
     347775 32817    1.26831   74  120    1.27890    1.25326  2.01%   7.5  290s
     354188 32772     cutoff   63         1.27890    1.25390  1.95%   7.4  295s
    
    Cutting planes:
      Gomory: 3
      Implied bound: 15
      MIR: 5
      Flow cover: 24
      RLT: 5
    
    Explored 360477 nodes (2670489 simplex iterations) in 300.00 seconds (202.46 work units)
    Thread count was 1 (of 96 available processors)
    
    Solution count 10: 1.2789 1.2789 1.2789 ... 1.58733
    
    Time limit reached
    Best objective 1.278898614603e+00, best bound 1.254531028881e+00, gap 1.9054%
    
    User-callback calls 360540, time in user-callback 0.01 sec

--- Reading solution for model GAMS_MODEL
***
*** Solver did not provide marginals for model GAMS_MODEL
***
--- Executing after solve: elapsed 0:05:00.061
--- model.gms(290) 3 Mb
--- model.gms(481) 5 Mb
--- Putfile results /local/scratch/a/sgusev/repos/k_means/data/gams_gurobi_gdp.binary_multiplication/no_mode/2026-02-18_23-31-34/original/results.dat
--- Putfile statresults /local/scratch/a/sgusev/repos/k_means/data/gams_gurobi_gdp.binary_multiplication/no_mode/2026-02-18_23-31-34/original/resultsstat.dat
*** Status: Normal completion
--- Job model.gms Stop 02/18/26 23:36:35 elapsed 0:05:00.062
Original problem solved. Time taken: 300.55890226364136 seconds
Original objective value: 1.278898614603425
